
Gurobi 9.1.2 (win64, Java) logging started Mon Nov 15 11:52:28 2021

Academic license - for non-commercial use only - expires 2022-10-30
Gurobi Optimizer version 9.1.2 build v9.1.2rc0 (win64)
Thread count: 6 physical cores, 12 logical processors, using up to 12 threads
Optimize a model with 110 rows, 1000 columns and 2000 nonzeros
Model fingerprint: 0x2cb0d0b7
Variable types: 0 continuous, 1000 integer (1000 binary)
Coefficient statistics:
  Matrix range     [1e+00, 1e+03]
  Objective range  [5e+00, 1e+03]
  Bounds range     [1e+00, 1e+00]
  RHS range        [1e+00, 3e+03]
Found heuristic solution: objective 26691.000000
Presolve time: 0.01s
Presolved: 110 rows, 1000 columns, 2000 nonzeros
Variable types: 0 continuous, 1000 integer (1000 binary)
Presolved: 110 rows, 1000 columns, 2000 nonzeros


Root relaxation: objective 4.081569e+04, 141 iterations, 0.00 seconds

    Nodes    |    Current Node    |     Objective Bounds      |     Work
 Expl Unexpl |  Obj  Depth IntInf | Incumbent    BestBd   Gap | It/Node Time

     0     0 40815.6913    0   15 26691.0000 40815.6913  52.9%     -    0s
H    0     0                    39891.000000 40815.6913  2.32%     -    0s
H    0     0                    40408.000000 40815.6913  1.01%     -    0s
H    0     0                    40438.000000 40815.6913  0.93%     -    0s
     0     0 40805.0303    0   22 40438.0000 40805.0303  0.91%     -    0s
H    0     0                    40545.000000 40805.0303  0.64%     -    0s
H    0     0                    40676.000000 40805.0303  0.32%     -    0s
     0     0 40805.0303    0   30 40676.0000 40805.0303  0.32%     -    0s
     0     0 40800.0074    0   12 40676.0000 40800.0074  0.30%     -    0s
     0     0 40800.0074    0    9 40676.0000 40800.0074  0.30%     -    0s
H    0     0                    40677.000000 40800.0074  0.30%     -    0s
     0     0 40800.0074    0   16 40677.0000 40800.0074  0.30%     -    0s
     0     0 40800.0074    0   20 40677.0000 40800.0074  0.30%     -    0s
     0     0 40800.0074    0   30 40677.0000 40800.0074  0.30%     -    0s
     0     0 40800.0074    0   13 40677.0000 40800.0074  0.30%     -    0s
H    0     0                    40703.000000 40800.0074  0.24%     -    0s
     0     2 40800.0074    0   13 40703.0000 40800.0074  0.24%     -    0s
H   79    90                    40736.000115 40799.9043  0.16%   8.9    0s
H 2874  2412                    40782.000000 40799.9043  0.04%   8.2    2s

Cutting planes:
  Gomory: 3
  Cover: 5
  RLT: 2

Explored 7404 nodes (35663 simplex iterations) in 2.68 seconds
Thread count was 12 (of 12 available processors)

Solution count 10: 40782 40736 40703 ... 26691

Optimal solution found (tolerance 1.00e-12)
Best objective 4.078200000000e+04, best bound 4.078200000000e+04, gap 0.0000%
